problems/csplib-prob056/sonet-models/noch/O2/lingeling/model_2_1-s3ring02-solution000001.eprime-solution
language ESSENCE' 1.0

letting network_ExplicitWithFlagsR6_Flags be [1, 1, 1, 1, 2, 1, 0; int(1..7)]
letting network_ExplicitWithFlagsR6_Values_ExplicitVarSizeWithDummy be
        [[1, 7, 8, 10, 14; int(1..5)], [1, 8, 11, 12, 13; int(1..5)], [2, 9, 14, 14, 14; int(1..5)],
         [3, 4, 5, 6, 10; int(1..5)], [3, 4, 7, 9, 12; int(1..5)], [14, 14, 14, 14, 14; int(1..5)],
         [1, 1, 1, 1, 1; int(1..5)]; int(1..7)]
