problems/csplib-prob056/sonet-models/noch/O2/lingeling/model_2_1-s3ring02-solution000001.solution
language Essence 1.3

letting network be
        mset({}, {1, 7, 8, 10}, {1, 8, 11, 12, 13}, {2, 9}, {3, 4, 5, 6, 10}, {3, 4, 7, 9, 12}, {3, 4, 7, 9, 12})
$ Here is a simple "visualisation" for the value above.
$ 
$  1  7  8 10
$  1  8 11 12 13
$  2  9
$  3  4  5  6 10
$  3  4  7  9 12
$  3  4  7  9 12

